<number of tasks>
50

<cycle time>
1000

<order strength>
0.197


<task times>
1 486
2 290
3 247
4 70
5 42
6 445
7 60
8 216
9 474
10 309
11 220
12 31
13 94
14 39
15 260
16 137
17 166
18 47
19 212
20 74
21 70
22 148
23 305
24 364
25 154
26 448
27 410
28 122
29 516
30 72
31 59
32 43
33 285
34 304
35 155
36 143
37 31
38 250
39 365
40 487
41 243
42 328
43 466
44 194
45 451
46 241
47 85
48 41
49 66
50 250

<precedence relations>
1,9
2,9
3,9
4,9
5,10
6,11
7,12
8,13
8,14
8,15
8,16
8,17
8,18
9,19
9,20
9,21
9,22
9,40
9,44
10,23
11,24
12,26
13,25
13,41
16,50
17,44
18,27
19,33
20,50
21,31
22,32
23,30
24,28
25,29
27,46
28,35
29,34
31,36
34,37
35,38
35,39
35,40
36,43
37,42
40,41
40,43
41,45
41,48
42,44
42,46
43,47
43,49
43,50

<end>
